6002
1 0 1 0 0 0 0 1 0 0 0 0 0 1 1 0 0 0 1 0 0 0 0 1 0 0 1 0 1 0 
0 0 0 2 2 2 2 2 2 2 2 2 2 7 7 7 7 7 7 7 7 7 7 7 7 7 7 13 13 14 13 13 13 14 13 14 18 18 18 13 13 13 18 18 18 18 18 18 23 18 23 18 0 23 23 23 23 26 26 26 26 26 26 26 28 28 28 28 0 28 
